
Gurobi 9.5.2 (win64) logging started Mon Mar 27 20:26:34 2023

Set parameter LogFile to value "2023-03-27_20hr-25min-09sec/Nodes20_Arcs35_LocNodes15/Formulation-2Instance-5.log"
Set parameter TimeLimit to value 600
Set parameter IntFeasTol to value 1e-09
Set parameter DualReductions to value 0
Set parameter NonConvex to value 2
Gurobi Optimizer version 9.5.2 build v9.5.2rc0 (win64)
Thread count: 4 physical cores, 8 logical processors, using up to 8 threads
Optimize a model with 91 rows, 160 columns and 350 nonzeros
Model fingerprint: 0xc7f3d036
Model has 55 quadratic objective terms
Model has 55 SOS constraints
Variable types: 145 continuous, 15 integer (15 binary)
Coefficient statistics:
  Matrix range     [2e-02, 2e+02]
  Objective range  [2e-01, 1e+03]
  QObjective range [5e-02, 8e+00]
  Bounds range     [1e+00, 1e+00]
  RHS range        [2e-01, 1e+03]
Presolve removed 7 rows and 12 columns
Presolve time: 0.00s
Presolved: 84 rows, 148 columns, 321 nonzeros
Presolved model has 48 SOS constraint(s)
Presolved model has 48 quadratic objective terms
Variable types: 133 continuous, 15 integer (15 binary)

Root relaxation: objective 3.290185e+05, 199 iterations, 0.00 seconds (0.00 work units)

    Nodes    |    Current Node    |     Objective Bounds      |     Work
 Expl Unexpl |  Obj  Depth IntInf | Incumbent    BestBd   Gap | It/Node Time

     0     0 329018.471    0   10          - 329018.471      -     -    0s
H    0     0                    326830.87504 329018.471  0.67%     -    0s
H    0     0                    327143.14493 328962.879  0.56%     -    0s
     0     0 328741.369    0    9 327143.145 328741.369  0.49%     -    0s
     0     0 328665.397    0    9 327143.145 328665.397  0.47%     -    0s
H    0     0                    327143.14520 328665.397  0.47%     -    0s
     0     0 328558.212    0   18 327143.145 328558.212  0.43%     -    0s
     0     0 328485.638    0   16 327143.145 328485.638  0.41%     -    0s
     0     0 328337.247    0   15 327143.145 328337.247  0.37%     -    0s
     0     0 328321.593    0   16 327143.145 328321.593  0.36%     -    0s
     0     0 328302.172    0   16 327143.145 328302.172  0.35%     -    0s
     0     0 328253.756    0   16 327143.145 328253.756  0.34%     -    0s
     0     0 328253.756    0   10 327143.145 328253.756  0.34%     -    0s
     0     0 328253.756    0   16 327143.145 328253.756  0.34%     -    0s
     0     0 328253.756    0   14 327143.145 328253.756  0.34%     -    0s
     0     0 328253.756    0   15 327143.145 328253.756  0.34%     -    0s
     0     0 328253.756    0    9 327143.145 328253.756  0.34%     -    0s
H    0     0                    327166.95421 328253.756  0.33%     -    0s
     0     0 328253.756    0   10 327166.954 328253.756  0.33%     -    0s
H    0     0                    327202.73819 328253.756  0.32%     -    0s
     0     0 328253.756    0   10 327202.738 328253.756  0.32%     -    0s
     0     0 328253.756    0    8 327202.738 328253.756  0.32%     -    0s
     0     2 328253.756    0    8 327202.738 328253.756  0.32%     -    0s
H   24    18                    327594.28784 327943.737  0.11%   4.1    0s

Cutting planes:
  Cover: 1
  Implied bound: 2
  MIR: 1

Explored 50 nodes (929 simplex iterations) in 0.27 seconds (0.05 work units)
Thread count was 8 (of 8 available processors)

Solution count 4: 327594 327203 327143 326831 

Optimal solution found (tolerance 1.00e-04)
Best objective 3.275942878364e+05, best bound 3.275942878364e+05, gap 0.0000%

User-callback calls 535, time in user-callback 0.00 sec
